This is Ipopt version 3.10.1, running with linear solver mumps.

Number of nonzeros in equality constraint Jacobian...:      177
Number of nonzeros in inequality constraint Jacobian.:        0
Number of nonzeros in Lagrangian Hessian.............:     3324

Total number of variables............................:       90
                     variables with only lower bounds:        0
                variables with lower and upper bounds:       90
                     variables with only upper bounds:        0
Total number of equality constraints.................:       59
Total number of inequality constraints...............:        0
        inequality constraints with only lower bounds:        0
   inequality constraints with lower and upper bounds:        0
        inequality constraints with only upper bounds:        0

iter    objective    inf_pr   inf_du lg(mu)  ||d||  lg(rg) alpha_du alpha_pr  ls
   0 -6.4041720e-04 8.95e-12 3.72e-04  -1.0 0.00e+00    -  0.00e+00 0.00e+00   0
   1 -6.0563119e-04 2.22e-16 3.77e-06  -1.7 1.85e-02    -  1.00e+00 1.00e+00f  1
   2 -5.3165886e-04 2.22e-16 2.13e-05  -2.5 3.52e-02    -  1.00e+00 1.00e+00f  1
   3 -5.4268999e-04 2.22e-16 4.14e-06  -3.8 3.24e-02    -  1.00e+00 1.00e+00f  1
   4 -2.0966120e-04 2.22e-16 1.68e-03  -5.7 4.07e-01    -  3.56e-01 6.95e-01h  1
   5 -1.3786641e-03 4.22e-13 2.89e-03  -5.7 5.94e-01    -  2.03e-01 4.43e-01f  1
   6 -1.7720843e-03 3.41e-13 2.50e-03  -5.7 1.45e-01  -2.0 6.99e-01 1.93e-01f  1
   7 -2.6932183e-03 9.75e-13 1.63e-03  -5.7 4.51e-02  -1.6 1.00e+00 1.00e+00f  1
   8 -7.7099767e-04 2.32e-13 9.05e-03  -5.7 3.83e-01  -2.1 7.31e-02 7.62e-01h  1
   9 -7.5816330e-04 2.31e-13 9.03e-03  -5.7 1.15e+00  -2.5 4.00e-03 1.93e-03f  8
iter    objective    inf_pr   inf_du lg(mu)  ||d||  lg(rg) alpha_du alpha_pr  ls
  10 -1.3208557e-03 6.66e-16 1.21e-03  -5.7 1.78e-01  -2.1 1.00e+00 1.00e+00f  1
  11 -1.4715077e-03 4.44e-16 1.84e-03  -5.7 4.17e-02  -1.7 9.95e-01 3.72e-01f  1
  12 -1.6920792e-03 1.02e-13 5.89e-03  -5.7 3.96e-01  -2.2 9.58e-01 4.64e-02f  1
  13 -2.5446054e-03 6.10e-13 1.37e-03  -5.7 6.44e-02  -1.7 1.00e+00 1.00e+00f  1
  14 -1.1413611e-03 8.88e-16 5.46e-03  -5.7 2.56e-01  -2.2 4.24e-01 1.00e+00h  1
  15 -1.4075034e-03 4.44e-16 7.45e-04  -5.7 4.63e-02  -1.8 1.00e+00 1.00e+00f  1
  16 -3.9868151e-03 3.33e-16 3.67e-03  -5.7 4.36e-01  -2.3 6.47e-01 3.65e-01f  1
  17 -3.9806461e-03 3.33e-16 4.94e-03  -5.7 1.11e+00  -1.8 7.85e-02 1.81e-04f 12
  18 -4.4073127e-03 2.81e-13 3.55e-03  -5.7 7.57e-02  -1.4 1.00e+00 1.69e-01f  1
  19 -5.2962987e-03 8.56e-13 2.40e-03  -5.7 2.34e-02  -1.0 1.00e+00 1.00e+00f  1
iter    objective    inf_pr   inf_du lg(mu)  ||d||  lg(rg) alpha_du alpha_pr  ls
  20 -8.1801226e-03 1.59e-12 8.07e-03  -5.7 1.95e-01  -1.5 1.00e+00 2.68e-01f  1
  21 -9.1035183e-03 1.20e-12 1.07e-02  -5.7 5.71e-02  -1.0 1.00e+00 2.45e-01f  1
  22 -1.0512324e-02 1.60e-12 4.67e-02  -5.7 1.64e+00  -1.5 2.85e-01 1.30e-02f  1
  23 -1.4203735e-02 7.03e-13 6.01e-03  -5.7 8.12e-02  -1.1 1.00e+00 5.61e-01f  1
  24 -1.7217802e-02 2.16e-12 6.60e-03  -5.7 3.06e-02  -0.7 1.00e+00 1.00e+00f  1
  25 -1.7722790e-02 2.27e-12 3.58e-02  -5.7 2.24e-01  -1.1 1.00e+00 1.87e-02f  1
  26 -1.9333054e-02 1.41e-12 9.11e-03  -5.7 3.64e-02  -0.7 1.00e+00 3.80e-01f  1
  27 -2.4437808e-02 2.71e-12 4.36e-02  -5.7 3.38e-01  -1.2 1.00e+00 1.26e-01f  1
  28 -2.6406035e-02 3.51e-12 1.83e-02  -5.7 8.03e-02  -0.8 1.00e+00 2.10e-01f  1
  29 -3.1579764e-02 5.61e-12 4.50e-02  -5.7 4.03e+00  -1.2 5.96e-02 9.93e-03f  1
iter    objective    inf_pr   inf_du lg(mu)  ||d||  lg(rg) alpha_du alpha_pr  ls
  30 -4.2032893e-02 3.09e-12 1.89e-02  -5.7 1.31e-01  -0.8 1.00e+00 4.49e-01f  1
  31 -5.2262989e-02 5.37e-12 1.99e-02  -5.7 4.24e-02  -0.4 1.00e+00 9.14e-01f  1
  32 -5.4918159e-02 6.52e-12 1.60e-01  -5.7 7.47e-01  -0.9 4.63e-01 1.37e-02f  1
  33 -4.9757603e-02 5.74e-12 1.56e-01  -5.7 6.09e-01  -1.3 5.60e-02 1.19e-01h  1
  34 -5.1431892e-02 5.55e-12 1.24e-01  -5.7 2.71e-01  -0.9 1.00e+00 3.26e-02f  1
  35 -5.1427974e-02 5.55e-12 1.12e-01  -5.7 8.43e-01  -1.4 1.09e-01 1.49e-04f 11
  36 -5.8020095e-02 5.14e-12 1.28e-01  -5.7 4.39e-01  -1.0 4.40e-01 7.44e-02f  1
  37 -6.9051226e-02 9.82e-12 1.99e-02  -5.7 6.52e-02  -0.5 1.00e+00 8.06e-01f  1
  38 -7.1582213e-02 1.10e-11 8.53e-02  -5.7 7.35e-01  -1.0 2.31e-01 1.49e-02f  1
  39 -8.3946701e-02 4.34e-12 2.17e-02  -5.7 8.29e-02  -0.6 1.00e+00 6.05e-01f  1
iter    objective    inf_pr   inf_du lg(mu)  ||d||  lg(rg) alpha_du alpha_pr  ls
  40 -8.7946724e-02 4.29e-12 2.25e-02  -5.7 1.18e+00  -1.1 1.51e-02 1.29e-02f  1
  41 -1.0725154e-01 1.51e-12 2.76e-02  -5.7 1.13e-01  -0.6 1.00e+00 6.48e-01f  1
  42 -1.0724999e-01 1.51e-12 2.76e-02  -5.7 6.85e-01  -1.1 2.96e-02 9.35e-06f 16
  43 -1.3147558e-01 8.21e-13 5.48e-02  -5.7 1.63e-01  -0.7 8.80e-01 4.55e-01f  1
  44 -1.3595959e-01 3.32e-12 5.01e-02  -5.7 6.76e-02  -0.3 1.00e+00 1.67e-01f  1
  45 -1.7038480e-01 3.08e-12 2.52e-01  -5.7 8.79e-01  -0.7 3.31e-01 7.18e-02f  1
  46 -1.7405520e-01 2.94e-12 2.22e-01  -5.7 1.10e-01  -0.3 2.50e-01 4.56e-02f  1
  47 -1.8218443e-01 1.80e-12 5.26e-02  -5.7 2.75e-02   0.1 1.00e+00 3.88e-01f  1
  48 -1.9809617e-01 8.35e-12 1.84e-01  -5.7 1.36e-01  -0.4 1.00e+00 1.32e-01f  1
  49 -8.1869949e-02 2.04e-13 7.45e-01  -5.7 3.83e-01  -0.8 2.50e-02 9.76e-01h  1
iter    objective    inf_pr   inf_du lg(mu)  ||d||  lg(rg) alpha_du alpha_pr  ls
  50 -8.8968334e-02 1.71e-13 6.34e-01  -5.7 2.37e+00    -  2.05e-05 1.65e-01f  1
  51 -9.7373343e-02 1.16e-13 4.39e-01  -5.7 3.08e-01  -1.3 2.98e-01 3.19e-01f  1
  52 -9.7329793e-02 1.16e-13 4.38e-01  -5.7 3.85e-01    -  1.01e-04 2.58e-03f  7
  53 -9.7401462e-02 1.15e-13 3.13e-01  -5.7 6.40e-02  -0.9 5.50e-01 6.75e-03f  1
  54 -1.0216938e-01 4.95e-14 3.13e-01  -5.7 2.75e-01    -  3.86e-02 5.71e-01f  1
  55 -1.0215767e-01 4.93e-14 3.05e-01  -5.7 2.54e-01    -  8.37e-02 2.87e-03f  9
  56 -1.0218038e-01 3.81e-13 1.00e-01  -5.7 2.38e-01    -  1.31e-01 9.34e-01h  1
  57 -1.0965352e-01 2.03e-13 1.05e-01  -5.7 2.04e-01  -1.4 5.39e-02 4.68e-01f  1
  58 -1.2346972e-01 2.22e-16 2.70e-02  -5.7 7.43e-02  -0.9 7.65e-01 1.00e+00f  1
  59 -1.3053664e-01 2.58e-12 1.27e-02  -5.7 3.37e-02  -0.5 8.04e-01 8.11e-01F  1
iter    objective    inf_pr   inf_du lg(mu)  ||d||  lg(rg) alpha_du alpha_pr  ls
  60 -1.4103353e-01 2.50e-12 3.11e-02  -5.7 2.26e+00  -1.0 1.08e-02 2.90e-02f  1
  61 -1.6693699e-01 3.27e-12 1.08e-01  -5.7 8.63e-02  -0.6 7.26e-03 8.86e-01F  1
  62 -1.6861726e-01 2.58e-12 9.82e-02  -5.7 8.99e-02  -0.1 2.34e-01 2.12e-01f  1
  63 -1.7146676e-01 6.00e-12 9.69e-02  -5.7 2.62e-01  -0.6 5.87e-02 2.30e-02f  3
  64 -1.8305358e-01 3.22e-12 6.46e-02  -5.7 4.54e-02  -0.2 2.91e-01 4.63e-01f  1
  65 -2.1858066e-01 3.98e-11 5.61e-02  -5.7 2.29e-01  -0.7 3.38e-01 2.79e-01f  1
  66 -2.0717247e-01 3.77e-11 5.45e-02  -5.7 4.56e-01  -1.1 6.80e-02 5.27e-02h  2
  67 -2.3231738e-01 6.03e-11 5.25e-02  -5.7 4.34e-01  -0.7 1.76e-01 9.69e-02f  1
  68 -2.3626265e-01 5.65e-11 6.16e-02  -5.7 9.53e-02  -0.3 4.40e-01 6.27e-02f  1
  69 -2.9982653e-01 3.08e-11 7.22e-02  -5.7 3.21e-01  -0.8 6.77e-01 4.55e-01f  1
iter    objective    inf_pr   inf_du lg(mu)  ||d||  lg(rg) alpha_du alpha_pr  ls
  70 -3.2069230e-01 3.08e-11 6.64e-01  -5.7 3.26e+01  -1.3 1.71e-02 1.20e-03f  1
  71 -3.2693133e-01 3.07e-11 8.31e-01  -5.7 6.44e+00  -1.7 3.39e-02 2.44e-03f  1
  72 -3.4779643e-01 3.50e-11 8.52e-01  -5.7 1.84e+00    -  1.65e-01 4.31e-02f  1
  73 -3.4982591e-01 7.13e-11 1.84e-01  -5.7 5.00e-02    -  7.72e-01 1.00e+00f  1
  74 -3.5138700e-01 1.60e-11 2.26e-02  -5.7 1.34e-02    -  8.78e-01 7.75e-01f  1
  75 -3.5175435e-01 2.22e-16 3.28e-05  -5.7 3.14e-03    -  1.00e+00 1.00e+00f  1
  76 -3.5177232e-01 2.22e-16 9.30e-09  -5.7 4.51e-05    -  1.00e+00 1.00e+00f  1
  77 -3.5188293e-01 2.22e-16 6.38e-08  -8.6 8.51e-05    -  1.00e+00 1.00e+00f  1
  78 -3.5188288e-01 3.89e-15 4.41e-14  -8.6 7.42e-08    -  1.00e+00 1.00e+00h  1

Number of Iterations....: 78

                                   (scaled)                 (unscaled)
Objective...............:  -3.5188288393834039e-01   -3.5188288393834039e-01
Dual infeasibility......:   4.4068897498179721e-14    4.4068897498179721e-14
Constraint violation....:   3.8857805861880479e-15    3.8857805861880479e-15
Complementarity.........:   3.0653963580357489e-09    3.0653963580357489e-09
Overall NLP error.......:   3.0653963580357489e-09    3.0653963580357489e-09


Number of objective function evaluations             = 143
Number of objective gradient evaluations             = 79
Number of equality constraint evaluations            = 143
Number of inequality constraint evaluations          = 0
Number of equality constraint Jacobian evaluations   = 1
Number of inequality constraint Jacobian evaluations = 0
Number of Lagrangian Hessian evaluations             = 78
Total CPU secs in IPOPT (w/o function evaluations)   =      0.240
Total CPU secs in NLP function evaluations           =      2.580

EXIT: Optimal Solution Found.
